; benchmark generated from python API
(set-info :notes "Crafted for Array Sum evaluation.")
(set-info :status unsat)
(declare-fun v_0 () Int)
(declare-fun i_0 () Int)
(declare-fun x_0 () (Array Int Int))
(declare-fun x_1 () (Array Int Int))
(declare-fun v_1 () Int)
(declare-fun i_1 () Int)
(declare-fun x_2 () (Array Int Int))
(declare-fun v_2 () Int)
(declare-fun i_2 () Int)
(declare-fun x_3 () (Array Int Int))
(declare-fun v_3 () Int)
(declare-fun i_3 () Int)
(declare-fun x_4 () (Array Int Int))
(declare-fun v_4 () Int)
(declare-fun i_4 () Int)
(declare-fun x_5 () (Array Int Int))
(declare-fun v_5 () Int)
(declare-fun i_5 () Int)
(declare-fun x_6 () (Array Int Int))
(declare-fun v_6 () Int)
(declare-fun i_6 () Int)
(declare-fun x_7 () (Array Int Int))
(declare-fun v_7 () Int)
(declare-fun i_7 () Int)
(declare-fun x_8 () (Array Int Int))
(declare-fun v_8 () Int)
(declare-fun i_8 () Int)
(declare-fun x_9 () (Array Int Int))
(declare-fun v_9 () Int)
(declare-fun i_9 () Int)
(declare-fun x_10 () (Array Int Int))
(declare-fun v_10 () Int)
(declare-fun i_10 () Int)
(declare-fun x_11 () (Array Int Int))
(declare-fun v_11 () Int)
(declare-fun i_11 () Int)
(declare-fun x_12 () (Array Int Int))
(declare-fun v_12 () Int)
(declare-fun i_12 () Int)
(declare-fun x_13 () (Array Int Int))
(declare-fun v_13 () Int)
(declare-fun i_13 () Int)
(declare-fun x_14 () (Array Int Int))
(declare-fun v_14 () Int)
(declare-fun i_14 () Int)
(declare-fun x_15 () (Array Int Int))
(declare-fun v_15 () Int)
(declare-fun i_15 () Int)
(declare-fun x_16 () (Array Int Int))
(declare-fun v_16 () Int)
(declare-fun i_16 () Int)
(declare-fun x_17 () (Array Int Int))
(declare-fun v_17 () Int)
(declare-fun i_17 () Int)
(declare-fun x_18 () (Array Int Int))
(declare-fun v_18 () Int)
(declare-fun i_18 () Int)
(declare-fun x_19 () (Array Int Int))
(declare-fun v_19 () Int)
(declare-fun i_19 () Int)
(declare-fun x_20 () (Array Int Int))
(declare-fun v_20 () Int)
(declare-fun i_20 () Int)
(declare-fun x_21 () (Array Int Int))
(declare-fun v_21 () Int)
(declare-fun i_21 () Int)
(declare-fun x_22 () (Array Int Int))
(declare-fun v_22 () Int)
(declare-fun i_22 () Int)
(declare-fun x_23 () (Array Int Int))
(declare-fun v_23 () Int)
(declare-fun i_23 () Int)
(declare-fun x_24 () (Array Int Int))
(declare-fun v_24 () Int)
(declare-fun i_24 () Int)
(declare-fun x_25 () (Array Int Int))
(declare-fun v_25 () Int)
(declare-fun i_25 () Int)
(declare-fun x_26 () (Array Int Int))
(declare-fun v_26 () Int)
(declare-fun i_26 () Int)
(declare-fun x_27 () (Array Int Int))
(declare-fun v_27 () Int)
(declare-fun i_27 () Int)
(declare-fun x_28 () (Array Int Int))
(declare-fun v_28 () Int)
(declare-fun i_28 () Int)
(declare-fun x_29 () (Array Int Int))
(declare-fun v_29 () Int)
(declare-fun i_29 () Int)
(declare-fun x_30 () (Array Int Int))
(declare-fun v_30 () Int)
(declare-fun i_30 () Int)
(declare-fun x_31 () (Array Int Int))
(declare-fun v_31 () Int)
(declare-fun i_31 () Int)
(declare-fun x_32 () (Array Int Int))
(declare-fun v_32 () Int)
(declare-fun i_32 () Int)
(declare-fun x_33 () (Array Int Int))
(declare-fun v_33 () Int)
(declare-fun i_33 () Int)
(declare-fun x_34 () (Array Int Int))
(declare-fun v_34 () Int)
(declare-fun i_34 () Int)
(declare-fun x_35 () (Array Int Int))
(declare-fun v_35 () Int)
(declare-fun i_35 () Int)
(declare-fun x_36 () (Array Int Int))
(declare-fun v_36 () Int)
(declare-fun i_36 () Int)
(declare-fun x_37 () (Array Int Int))
(declare-fun v_37 () Int)
(declare-fun i_37 () Int)
(declare-fun x_38 () (Array Int Int))
(declare-fun v_38 () Int)
(declare-fun i_38 () Int)
(declare-fun x_39 () (Array Int Int))
(declare-fun v_39 () Int)
(declare-fun i_39 () Int)
(declare-fun x_40 () (Array Int Int))
(declare-fun v_40 () Int)
(declare-fun i_40 () Int)
(declare-fun x_41 () (Array Int Int))
(declare-fun v_41 () Int)
(declare-fun i_41 () Int)
(declare-fun x_42 () (Array Int Int))
(declare-fun v_42 () Int)
(declare-fun i_42 () Int)
(declare-fun x_43 () (Array Int Int))
(declare-fun v_43 () Int)
(declare-fun i_43 () Int)
(declare-fun x_44 () (Array Int Int))
(declare-fun v_44 () Int)
(declare-fun i_44 () Int)
(declare-fun x_45 () (Array Int Int))
(declare-fun v_45 () Int)
(declare-fun i_45 () Int)
(declare-fun x_46 () (Array Int Int))
(declare-fun v_46 () Int)
(declare-fun i_46 () Int)
(declare-fun x_47 () (Array Int Int))
(declare-fun v_47 () Int)
(declare-fun i_47 () Int)
(declare-fun x_48 () (Array Int Int))
(declare-fun v_48 () Int)
(declare-fun i_48 () Int)
(declare-fun x_49 () (Array Int Int))
(declare-fun v_49 () Int)
(declare-fun i_49 () Int)
(declare-fun x_50 () (Array Int Int))
(declare-fun v_50 () Int)
(declare-fun i_50 () Int)
(declare-fun x_51 () (Array Int Int))
(declare-fun v_51 () Int)
(declare-fun i_51 () Int)
(declare-fun x_52 () (Array Int Int))
(declare-fun v_52 () Int)
(declare-fun i_52 () Int)
(declare-fun x_53 () (Array Int Int))
(declare-fun v_53 () Int)
(declare-fun i_53 () Int)
(declare-fun x_54 () (Array Int Int))
(declare-fun v_54 () Int)
(declare-fun i_54 () Int)
(declare-fun x_55 () (Array Int Int))
(declare-fun v_55 () Int)
(declare-fun i_55 () Int)
(declare-fun x_56 () (Array Int Int))
(declare-fun v_56 () Int)
(declare-fun i_56 () Int)
(declare-fun x_57 () (Array Int Int))
(declare-fun v_57 () Int)
(declare-fun i_57 () Int)
(declare-fun x_58 () (Array Int Int))
(declare-fun v_58 () Int)
(declare-fun i_58 () Int)
(declare-fun x_59 () (Array Int Int))
(declare-fun v_59 () Int)
(declare-fun i_59 () Int)
(declare-fun x_60 () (Array Int Int))
(declare-fun v_60 () Int)
(declare-fun i_60 () Int)
(declare-fun x_61 () (Array Int Int))
(declare-fun v_61 () Int)
(declare-fun i_61 () Int)
(declare-fun x_62 () (Array Int Int))
(declare-fun v_62 () Int)
(declare-fun i_62 () Int)
(declare-fun x_63 () (Array Int Int))
(declare-fun v_63 () Int)
(declare-fun i_63 () Int)
(declare-fun x_64 () (Array Int Int))
(declare-fun v_64 () Int)
(declare-fun i_64 () Int)
(declare-fun x_65 () (Array Int Int))
(declare-fun v_65 () Int)
(declare-fun i_65 () Int)
(declare-fun x_66 () (Array Int Int))
(declare-fun v_66 () Int)
(declare-fun i_66 () Int)
(declare-fun x_67 () (Array Int Int))
(declare-fun v_67 () Int)
(declare-fun i_67 () Int)
(declare-fun x_68 () (Array Int Int))
(declare-fun v_68 () Int)
(declare-fun i_68 () Int)
(declare-fun x_69 () (Array Int Int))
(declare-fun v_69 () Int)
(declare-fun i_69 () Int)
(declare-fun x_70 () (Array Int Int))
(declare-fun v_70 () Int)
(declare-fun i_70 () Int)
(declare-fun x_71 () (Array Int Int))
(declare-fun v_71 () Int)
(declare-fun i_71 () Int)
(declare-fun x_72 () (Array Int Int))
(declare-fun v_72 () Int)
(declare-fun i_72 () Int)
(declare-fun x_73 () (Array Int Int))
(declare-fun v_73 () Int)
(declare-fun i_73 () Int)
(declare-fun x_74 () (Array Int Int))
(declare-fun v_74 () Int)
(declare-fun i_74 () Int)
(declare-fun x_75 () (Array Int Int))
(declare-fun v_75 () Int)
(declare-fun i_75 () Int)
(declare-fun x_76 () (Array Int Int))
(declare-fun v_76 () Int)
(declare-fun i_76 () Int)
(declare-fun x_77 () (Array Int Int))
(declare-fun v_77 () Int)
(declare-fun i_77 () Int)
(declare-fun x_78 () (Array Int Int))
(declare-fun v_78 () Int)
(declare-fun i_78 () Int)
(declare-fun x_79 () (Array Int Int))
(declare-fun v_79 () Int)
(declare-fun i_79 () Int)
(declare-fun x_80 () (Array Int Int))
(declare-fun v_80 () Int)
(declare-fun i_80 () Int)
(declare-fun x_81 () (Array Int Int))
(declare-fun v_81 () Int)
(declare-fun i_81 () Int)
(declare-fun x_82 () (Array Int Int))
(declare-fun v_82 () Int)
(declare-fun i_82 () Int)
(declare-fun x_83 () (Array Int Int))
(declare-fun v_83 () Int)
(declare-fun i_83 () Int)
(declare-fun x_84 () (Array Int Int))
(declare-fun v_84 () Int)
(declare-fun i_84 () Int)
(declare-fun x_85 () (Array Int Int))
(declare-fun v_85 () Int)
(declare-fun i_85 () Int)
(declare-fun x_86 () (Array Int Int))
(declare-fun v_86 () Int)
(declare-fun i_86 () Int)
(declare-fun x_87 () (Array Int Int))
(declare-fun v_87 () Int)
(declare-fun i_87 () Int)
(declare-fun x_88 () (Array Int Int))
(declare-fun v_88 () Int)
(declare-fun i_88 () Int)
(declare-fun x_89 () (Array Int Int))
(declare-fun v_89 () Int)
(declare-fun i_89 () Int)
(declare-fun x_90 () (Array Int Int))
(declare-fun v_90 () Int)
(declare-fun i_90 () Int)
(declare-fun x_91 () (Array Int Int))
(declare-fun v_91 () Int)
(declare-fun i_91 () Int)
(declare-fun x_92 () (Array Int Int))
(declare-fun v_92 () Int)
(declare-fun i_92 () Int)
(declare-fun x_93 () (Array Int Int))
(declare-fun v_93 () Int)
(declare-fun i_93 () Int)
(declare-fun x_94 () (Array Int Int))
(declare-fun v_94 () Int)
(declare-fun i_94 () Int)
(declare-fun x_95 () (Array Int Int))
(declare-fun w_2 () Int)
(declare-fun w_1 () Int)
(declare-fun w_0 () Int)
(declare-fun c () Int)
(declare-fun sum ((Array Int Int) Int) Bool)
(assert
 (> v_0 0))
(assert
 (= x_1 (store x_0 i_0 v_0)))
(assert
 (> v_1 0))
(assert
 (= x_2 (store x_1 i_1 v_1)))
(assert
 (> v_2 0))
(assert
 (= x_3 (store x_2 i_2 v_2)))
(assert
 (> v_3 0))
(assert
 (= x_4 (store x_3 i_3 v_3)))
(assert
 (> v_4 0))
(assert
 (= x_5 (store x_4 i_4 v_4)))
(assert
 (> v_5 0))
(assert
 (= x_6 (store x_5 i_5 v_5)))
(assert
 (> v_6 0))
(assert
 (= x_7 (store x_6 i_6 v_6)))
(assert
 (> v_7 0))
(assert
 (= x_8 (store x_7 i_7 v_7)))
(assert
 (> v_8 0))
(assert
 (= x_9 (store x_8 i_8 v_8)))
(assert
 (> v_9 0))
(assert
 (= x_10 (store x_9 i_9 v_9)))
(assert
 (> v_10 0))
(assert
 (= x_11 (store x_10 i_10 v_10)))
(assert
 (> v_11 0))
(assert
 (= x_12 (store x_11 i_11 v_11)))
(assert
 (> v_12 0))
(assert
 (= x_13 (store x_12 i_12 v_12)))
(assert
 (> v_13 0))
(assert
 (= x_14 (store x_13 i_13 v_13)))
(assert
 (> v_14 0))
(assert
 (= x_15 (store x_14 i_14 v_14)))
(assert
 (> v_15 0))
(assert
 (= x_16 (store x_15 i_15 v_15)))
(assert
 (> v_16 0))
(assert
 (= x_17 (store x_16 i_16 v_16)))
(assert
 (> v_17 0))
(assert
 (= x_18 (store x_17 i_17 v_17)))
(assert
 (> v_18 0))
(assert
 (= x_19 (store x_18 i_18 v_18)))
(assert
 (> v_19 0))
(assert
 (= x_20 (store x_19 i_19 v_19)))
(assert
 (> v_20 0))
(assert
 (= x_21 (store x_20 i_20 v_20)))
(assert
 (> v_21 0))
(assert
 (= x_22 (store x_21 i_21 v_21)))
(assert
 (> v_22 0))
(assert
 (= x_23 (store x_22 i_22 v_22)))
(assert
 (> v_23 0))
(assert
 (= x_24 (store x_23 i_23 v_23)))
(assert
 (> v_24 0))
(assert
 (= x_25 (store x_24 i_24 v_24)))
(assert
 (> v_25 0))
(assert
 (= x_26 (store x_25 i_25 v_25)))
(assert
 (> v_26 0))
(assert
 (= x_27 (store x_26 i_26 v_26)))
(assert
 (> v_27 0))
(assert
 (= x_28 (store x_27 i_27 v_27)))
(assert
 (> v_28 0))
(assert
 (= x_29 (store x_28 i_28 v_28)))
(assert
 (> v_29 0))
(assert
 (= x_30 (store x_29 i_29 v_29)))
(assert
 (> v_30 0))
(assert
 (= x_31 (store x_30 i_30 v_30)))
(assert
 (> v_31 0))
(assert
 (= x_32 (store x_31 i_31 v_31)))
(assert
 (> v_32 0))
(assert
 (= x_33 (store x_32 i_32 v_32)))
(assert
 (> v_33 0))
(assert
 (= x_34 (store x_33 i_33 v_33)))
(assert
 (> v_34 0))
(assert
 (= x_35 (store x_34 i_34 v_34)))
(assert
 (> v_35 0))
(assert
 (= x_36 (store x_35 i_35 v_35)))
(assert
 (> v_36 0))
(assert
 (= x_37 (store x_36 i_36 v_36)))
(assert
 (> v_37 0))
(assert
 (= x_38 (store x_37 i_37 v_37)))
(assert
 (> v_38 0))
(assert
 (= x_39 (store x_38 i_38 v_38)))
(assert
 (> v_39 0))
(assert
 (= x_40 (store x_39 i_39 v_39)))
(assert
 (> v_40 0))
(assert
 (= x_41 (store x_40 i_40 v_40)))
(assert
 (> v_41 0))
(assert
 (= x_42 (store x_41 i_41 v_41)))
(assert
 (> v_42 0))
(assert
 (= x_43 (store x_42 i_42 v_42)))
(assert
 (> v_43 0))
(assert
 (= x_44 (store x_43 i_43 v_43)))
(assert
 (> v_44 0))
(assert
 (= x_45 (store x_44 i_44 v_44)))
(assert
 (> v_45 0))
(assert
 (= x_46 (store x_45 i_45 v_45)))
(assert
 (> v_46 0))
(assert
 (= x_47 (store x_46 i_46 v_46)))
(assert
 (> v_47 0))
(assert
 (= x_48 (store x_47 i_47 v_47)))
(assert
 (> v_48 0))
(assert
 (= x_49 (store x_48 i_48 v_48)))
(assert
 (> v_49 0))
(assert
 (= x_50 (store x_49 i_49 v_49)))
(assert
 (> v_50 0))
(assert
 (= x_51 (store x_50 i_50 v_50)))
(assert
 (> v_51 0))
(assert
 (= x_52 (store x_51 i_51 v_51)))
(assert
 (> v_52 0))
(assert
 (= x_53 (store x_52 i_52 v_52)))
(assert
 (> v_53 0))
(assert
 (= x_54 (store x_53 i_53 v_53)))
(assert
 (> v_54 0))
(assert
 (= x_55 (store x_54 i_54 v_54)))
(assert
 (> v_55 0))
(assert
 (= x_56 (store x_55 i_55 v_55)))
(assert
 (> v_56 0))
(assert
 (= x_57 (store x_56 i_56 v_56)))
(assert
 (> v_57 0))
(assert
 (= x_58 (store x_57 i_57 v_57)))
(assert
 (> v_58 0))
(assert
 (= x_59 (store x_58 i_58 v_58)))
(assert
 (> v_59 0))
(assert
 (= x_60 (store x_59 i_59 v_59)))
(assert
 (> v_60 0))
(assert
 (= x_61 (store x_60 i_60 v_60)))
(assert
 (> v_61 0))
(assert
 (= x_62 (store x_61 i_61 v_61)))
(assert
 (> v_62 0))
(assert
 (= x_63 (store x_62 i_62 v_62)))
(assert
 (> v_63 0))
(assert
 (= x_64 (store x_63 i_63 v_63)))
(assert
 (> v_64 0))
(assert
 (= x_65 (store x_64 i_64 v_64)))
(assert
 (> v_65 0))
(assert
 (= x_66 (store x_65 i_65 v_65)))
(assert
 (> v_66 0))
(assert
 (= x_67 (store x_66 i_66 v_66)))
(assert
 (> v_67 0))
(assert
 (= x_68 (store x_67 i_67 v_67)))
(assert
 (> v_68 0))
(assert
 (= x_69 (store x_68 i_68 v_68)))
(assert
 (> v_69 0))
(assert
 (= x_70 (store x_69 i_69 v_69)))
(assert
 (> v_70 0))
(assert
 (= x_71 (store x_70 i_70 v_70)))
(assert
 (> v_71 0))
(assert
 (= x_72 (store x_71 i_71 v_71)))
(assert
 (> v_72 0))
(assert
 (= x_73 (store x_72 i_72 v_72)))
(assert
 (> v_73 0))
(assert
 (= x_74 (store x_73 i_73 v_73)))
(assert
 (> v_74 0))
(assert
 (= x_75 (store x_74 i_74 v_74)))
(assert
 (> v_75 0))
(assert
 (= x_76 (store x_75 i_75 v_75)))
(assert
 (> v_76 0))
(assert
 (= x_77 (store x_76 i_76 v_76)))
(assert
 (> v_77 0))
(assert
 (= x_78 (store x_77 i_77 v_77)))
(assert
 (> v_78 0))
(assert
 (= x_79 (store x_78 i_78 v_78)))
(assert
 (> v_79 0))
(assert
 (= x_80 (store x_79 i_79 v_79)))
(assert
 (> v_80 0))
(assert
 (= x_81 (store x_80 i_80 v_80)))
(assert
 (> v_81 0))
(assert
 (= x_82 (store x_81 i_81 v_81)))
(assert
 (> v_82 0))
(assert
 (= x_83 (store x_82 i_82 v_82)))
(assert
 (> v_83 0))
(assert
 (= x_84 (store x_83 i_83 v_83)))
(assert
 (> v_84 0))
(assert
 (= x_85 (store x_84 i_84 v_84)))
(assert
 (> v_85 0))
(assert
 (= x_86 (store x_85 i_85 v_85)))
(assert
 (> v_86 0))
(assert
 (= x_87 (store x_86 i_86 v_86)))
(assert
 (> v_87 0))
(assert
 (= x_88 (store x_87 i_87 v_87)))
(assert
 (> v_88 0))
(assert
 (= x_89 (store x_88 i_88 v_88)))
(assert
 (> v_89 0))
(assert
 (= x_90 (store x_89 i_89 v_89)))
(assert
 (> v_90 0))
(assert
 (= x_91 (store x_90 i_90 v_90)))
(assert
 (> v_91 0))
(assert
 (= x_92 (store x_91 i_91 v_91)))
(assert
 (> v_92 0))
(assert
 (= x_93 (store x_92 i_92 v_92)))
(assert
 (> v_93 0))
(assert
 (= x_94 (store x_93 i_93 v_93)))
(assert
 (> v_94 0))
(assert
 (= x_95 (store x_94 i_94 v_94)))
(assert
 (= c (+ (+ w_0 w_1) w_2)))
(assert
 (sum x_1 c))
(assert
 (= x_0 ((as const (Array Int Int)) 0)))
(assert
 (< c 0))
(check-sat)
